DATASET = "thpack2";
INSTANCE = "066";

WIDTH = 233;
HEIGHT = 220;
LENGTH = 587;

NO_OF_SHAPES = 5;
size = [|
  87,45,32 |
  84,63,46 |
  84,67,44 |
  76,55,30 |
  87,78,61 |
|];

verticality = [|
  0,1,1 |
  1,1,1 |
  1,1,1 |
  0,1,1 |
  1,1,1 |
|];

box_count = [
  28,
  25,
  28,
  29,
  23,
];
